BAYES
11
2 2 2 3 2 2 2 2 2 2 3
11
1 0
2 0 1
2 0 2
2 0 3
2 0 4
2 0 5
2 0 6
2 0 7
2 0 8
2 0 9
2 0 10
2
 0.5 0.5
4
 0.1 0.9 0.9 0.1
4
 0.2 0.8 0.8 0.2
6
 0.2 0.1 0.7 0.3 0.3 0.4
4
 0.1 0.9 0.9 0.1
4
 0.2 0.8 0.8 0.2
4
 0.3 0.7 0.7 0.3
4
 0.1 0.9 0.9 0.1
4
 0.2 0.8 0.8 0.2
4
 0.3 0.7 0.7 0.3
6
 0.1 0.5 0.4 0.2 0.3 0.5